10
1 0 13
2 0 18
2 1 37
3 0 21
3 1 14
3 2 36
4 0 6
4 1 38
4 2 15
4 3 28
5 0 8
5 1 28
5 2 18
5 3 34
5 4 17
6 0 18
6 1 6
6 2 20
6 3 11
6 4 30
6 5 2
7 0 1
7 1 31
7 2 29
7 3 4
7 4 26
7 5 6
7 6 24
8 0 5
8 1 13
8 2 33
8 3 37
8 4 24
8 5 17
8 6 3
8 7 14
9 0 29
9 1 9
9 2 37
9 3 29
9 4 16
9 5 29
9 6 31
9 7 19
9 8 21
